\Problem name: 

Minimize
OBJROW: -7 x_0 -9 x_1 -10 x_2 -3 x_3 -6 x_4 - x_5 -9 x_6 -8 x_7 -8 x_8
Subject To
constr(0):  2 x_0 + x_1 + 9 x_2 + 6 x_3 + 3 x_4 + 6 x_5 + 10 x_6 + 9 x_7 + x_8 <= 60
constr(1):  8 x_0 + 6 x_1 + 6 x_2 + 5 x_3 + 2 x_4 + 2 x_5 + 4 x_6 + 3 x_7 + 6 x_8 <= 80
constr(2):  8 x_0 + x_1 + 3 x_2 + 7 x_3 + x_4 + 4 x_5 + 8 x_6 + 3 x_7 + 4 x_8 <= 30
constr(3):  6 x_0 + 3 x_1 + 9 x_2 + 5 x_3 + 9 x_4 + 6 x_5 + 9 x_6 + 9 x_7 + 6 x_8 <= 40
constr(4):  10 x_0 + 8 x_1 + 8 x_2 + 7 x_3 + 10 x_4 + 10 x_5 + 9 x_6 + 9 x_7 + 3 x_8 <= 20
constr(5):  10 x_0 + 10 x_1 + 10 x_2 + 9 x_3 + 10 x_4 + x_5 + 8 x_6 + 3 x_7 + 10 x_8 <= 90
constr(6):  10 x_0 + 5 x_1 + 8 x_2 + 2 x_3 + 7 x_4 + 8 x_5 + 6 x_6 + 2 x_7 + 2 x_8 <= 90
constr(7):  7 x_0 + 9 x_1 + x_2 + 9 x_3 + 5 x_4 + 8 x_5 + 5 x_6 + 9 x_7 + 5 x_8 <= 80
constr(8):  2 x_0 + 4 x_1 + 6 x_2 + x_3 + 7 x_4 + 9 x_5 + 10 x_6 + x_7 + 7 x_8 <= 80
constr(9):  8 x_0 + 10 x_1 + 2 x_2 + 6 x_3 + 7 x_4 + 2 x_5 + 2 x_6 + 4 x_7 + 9 x_8 <= 10
constr(10):  10 x_0 + 9 x_1 + x_2 + 4 x_3 + 2 x_4 + 4 x_5 + 4 x_6 + 8 x_7 + 2 x_8 <= 30
constr(11):  9 x_0 + 4 x_1 + x_2 + 8 x_3 + 9 x_4 + 5 x_5 + 10 x_6 + 5 x_7 + 8 x_8 <= 30
constr(12):  x_8 = 0
constr(13):  x_2 = 1
constr(14):  x_1 = 0
constr(15):  x_6 = 1
constr(16):  x_7 = 0
constr(17):  x_0 = 0
constr(18):  x_4 = 0
constr(19):  x_3 = 0
constr(20):  x_5 = 0
Bounds
End
